1000 
100
12 25
15 32
2 51
39 12
81 71
13 96
82 8
91 24
13 37
8 76
10 25
12 33
15 56
31 16
22 42
3 96
19 83
7 29
13 35
87 76
10 21
51 3
31 56
35 6
82 43
41 94
9 13
7 29
23 74
87 54
51 22
53 39
15 56
67 82
69 73
81 52
83 56
85 25
17 43
25 1000
54 22
9 4
43 98
31 123
22 70
37 96
12 81
67 75
89 79
45 64
10 63
7 9
15 35
51 31
82 29
11 69
89 13
67 15
3 37
87 76
10 25
3 33
25 6
31 16
82 2
13 96
89 1
67 24
3 37
87 76
10 25
51 33
22 56
51 6
82 42
12 96
39 81
67 24
13 37
87 76
13 25
15 33
25 56
31 16
22 23
12 96
89 81
67 24
12 37
87 76
10 25
15 33
29 56
31 16
12 1
13 96
1 8
30 24
71 37
3 76
